StudentsNr = 10;
InstructorsNr = 32;
DaysNr = 1;
SlotsPerDay = 40;
AvailabilitySlotsLenght = 10;
RoomNr = 1;
ProgrammNr = 2;
DegreeNr = 3;
RolesNr = 0;
CoursesNr = 5;
InstructorsProgramm = [{1}, {1}, {1, 2}, {1, 2}, {2}, {2}, {1}, {1, 2}, {1}, {2}, {1}, {1, 2}, {2}, {1}, {2}, {2}, {1}, {1}, {1}, {1}, {1, 2}, {1}, {1}, {2}, {2}, {2}, {1, 2}, {1}, {1, 2}, {1}, {1, 2}, {1, 2}];
InstructorRolesPerProgramm = array2d(1..ProgrammNr,{},[]);
InstructorsAvailability = [|0, 1, 1, 1, |1, 1, 0, 1, |0, 1, 1, 1, |1, 1, 1, 1, |0, 1, 0, 1, |0, 1, 1, 1, |1, 1, 1, 1, |0, 0, 0, 0, |1, 1, 1, 1, |1, 1, 0, 0, |0, 1, 1, 1, |1, 1, 1, 1, |0, 0, 1, 1, |0, 0, 0, 0, |1, 1, 1, 1, |0, 1, 1, 1, |0, 1, 1, 1, |1, 1, 1, 1, |1, 1, 1, 1, |1, 1, 1, 1, |1, 1, 1, 1, |1, 1, 1, 1, |1, 0, 1, 1, |0, 0, 0, 1, |1, 1, 1, 1, |0, 1, 1, 1, |1, 1, 1, 1, |1, 1, 1, 1, |1, 1, 1, 1, |0, 0, 0, 1, |0, 1, 1, 0, |1, 1, 1, 1|];
StudentsProgramm = [2, 1, 1, 1, 1, 1, 1, 1, 1, 1];
StudentsDegree = [1, 2, 1, 1, 2, 3, 3, 2, 3, 1];
StudentsSupervisorId = [32, 18, 28, 11, 1, 28, 9, 29, 22, 19];
StudentsCourseIds = [{1, 2, 3, 4, 5}, {4}, {1, 2, 3, 4, 5}, {1, 2, 3, 4, 5}, {3}, {2}, {1}, {3}, {4}, {1, 2, 3, 4, 5}];
StudentsAvailability = [|0, 1, 1, 1, |1, 1, 1, 1, |1, 1, 1, 1, |0, 1, 1, 1, |0, 0, 1, 1, |0, 0, 1, 0, |0, 0, 1, 1, |1, 1, 0, 1, |1, 1, 1, 1, |0, 1, 1, 1|];
TheoryticalMinCard = [5, 1, 5, 5, 2, 2, 2, 2, 1, 5];
CoursesInstructorIds = [{7, 26, 32}, {1, 2, 3, 5, 6, 7, 9, 13, 16, 17, 18, 22, 23, 25, 26, 27}, {15, 25, 31}, {1, 4, 12, 14, 16, 17, 18, 19, 21, 22, 23, 25, 27, 28, 29, 30}, {3, 5, 6, 7, 9, 11, 13, 16, 17, 18, 19, 22, 23, 24, 25, 26, 28, 30, 31}];
RolesDemands = [];
RolesContinuity = [];
ExamLen = [2, 1, 2, 2, 1, 2, 2, 1, 2, 2];
LunchTsMinLen = 0;
LunchStarts = [13..27];
SupervisorAvailable = 0;
OptimalLunchLenght = [2, 1];
OptimalStartTs = [0, 0];
OptimalFinishTs = [2, 40];
MinimizeRooms = 400;
RolesSoftContinuity = array2d(1..2,{},[]);
SameDegreeInRoom = 0;
Mergeability = 2;
